ATOMIC_SPECIES
B   10.811  B_ONCV_PBE-1.0.upf
F   18.998  F_ONCV_PBE-1.0.upf

NUMERICAL_ORBITAL
B_gga_8au_100Ry_4s4p1d.orb
F_gga_8au_100Ry_4s4p1d.orb

LATTICE_CONSTANT
1.889726125

LATTICE_VECTORS
15.000000  0.000000  0.000000
0.000000  15.000000  0.000000
0.000000  0.000000  15.000000

ATOMIC_POSITIONS (Angstrom)
B   7.5123  7.4891  7.5012  0 0 0
F   8.7956  7.5023  7.5189  0 0 0
F   6.8456  8.6301  7.4767  0 0 0
F   6.8322  6.3405  7.5018  0 0 0
