ATOMIC_SPECIES
U    238.05  U_SG15_PBE_FR.upf
F    18.998  F_ONCV_PBE-1.0.upf

NUMERICAL_ORBITAL
U_gga_10au_100Ry_6s4p4d2f.orb
F_gga_8au_100Ry_4s4p1d.orb

LATTICE_CONSTANT
1.889726125

LATTICE_VECTORS
20.000000  0.000000  0.000000
0.000000  20.000000  0.000000
0.000000  0.000000  20.000000

ATOMIC_POSITIONS (Angstrom)
U    9.9987  10.0012  9.9991  0 0 0
F   12.0876  10.0123  9.9934  0 0 0
F    7.9102  9.9945  10.0067  0 0 0
F   10.0089  12.0821  9.9876  0 0 0
F    9.9934   7.9213  10.0132  0 0 0
F   10.0056   9.9891  12.0889  0 0 0
F    9.9921  10.0156   7.9123  0 0 0
