ATOMIC_SPECIES
C   12.011  C_ONCV_PBE-1.0.upf
F   18.998  F_ONCV_PBE-1.0.upf

NUMERICAL_ORBITAL
C_gga_8au_100Ry_4s4p1d.orb
F_gga_8au_100Ry_4s4p1d.orb

LATTICE_CONSTANT
1.889726125

LATTICE_VECTORS
18.000000  0.000000  0.000000
0.000000  18.000000  0.000000
0.000000  0.000000  18.000000

ATOMIC_POSITIONS (Angstrom)
C    9.0012  8.9978  9.0034  0 0 0
F   10.2856  8.9901  9.0123  0 0 0
F    8.3345  9.8567  8.5219  0 0 0
F    8.3378  8.1245  9.8723  0 0 0
F    8.3401  9.0256  7.6134  0 0 0
